\Problem name: compact

Minimize
OBJROW: C
Subject To
ord(0,1):  - x(0,1) + x(0,2) >= 7
ord(0,2):  x(0,0) - x(0,2) >= 7
ord(1,1):  x(1,0) - x(1,1) >= 4
ord(1,2):  - x(1,0) + x(1,2) >= 3
ord(2,1):  - x(2,1) + x(2,2) >= 7
ord(2,2):  x(2,0) - x(2,2) >= 6
triangle2(0,1,0):  y(0,1,0) + y(1,0,0) = 1
triangle2(0,1,1):  y(0,1,1) + y(1,0,1) = 1
triangle2(0,1,2):  y(0,1,2) + y(1,0,2) = 1
triangle2(0,2,0):  y(0,2,0) + y(2,0,0) = 1
triangle2(0,2,1):  y(0,2,1) + y(2,0,1) = 1
triangle2(0,2,2):  y(0,2,2) + y(2,0,2) = 1
triangle2(1,2,0):  y(1,2,0) + y(2,1,0) = 1
triangle2(1,2,1):  y(1,2,1) + y(2,1,1) = 1
triangle2(1,2,2):  y(1,2,2) + y(2,1,2) = 1
MCLinV(0,1,0):  - x(0,0) + v(0,1,0)p - v(0,1,0)n + x(1,0) = -3
MCLinV(1,0,0):  x(0,0) + v(1,0,0)p - v(1,0,0)n - x(1,0) = -1
MCLin1(0,1,0):  u(0,1,0)p - u(0,1,0)n >= 0
MCLin2(0,1,0):  23 y(1,0,0) + u(0,1,0)p - u(0,1,0)n >= 0
MCLin3(0,1,0):  -36 y(1,0,0) - v(0,1,0)p + v(0,1,0)n + u(0,1,0)p - u(0,1,0)n >= -36
MCLin4(0,1,0):  -36 y(1,0,0) + u(0,1,0)p - u(0,1,0)n <= 0
MCLin5(0,1,0):  23 y(1,0,0) - v(0,1,0)p + v(0,1,0)n + u(0,1,0)p - u(0,1,0)n <= 23
MCLin6(1,0,0):  u(1,0,0)p - u(1,0,0)n >= 0
MCLin7(1,0,0):  40 y(0,1,0) + u(1,0,0)p - u(1,0,0)n >= 0
MCLin8(1,0,0):  -19 y(0,1,0) - v(1,0,0)p + v(1,0,0)n + u(1,0,0)p - u(1,0,0)n >= -19
MCLin9(1,0,0):  -19 y(0,1,0) + u(1,0,0)p - u(1,0,0)n <= 0
MCLin10(1,0,0):  40 y(0,1,0) - v(1,0,0)p + v(1,0,0)n + u(1,0,0)p - u(1,0,0)n <= 40
MCLinV(0,1,1):  - x(0,1) + v(0,1,1)p - v(0,1,1)n + x(1,1) = -4
MCLinV(1,0,1):  x(0,1) + v(1,0,1)p - v(1,0,1)n - x(1,1) = -7
MCLin1(0,1,1):  u(0,1,1)p - u(0,1,1)n >= 0
MCLin2(0,1,1):  34 y(1,0,1) + u(0,1,1)p - u(0,1,1)n >= 0
MCLin3(0,1,1):  -25 y(1,0,1) - v(0,1,1)p + v(0,1,1)n + u(0,1,1)p - u(0,1,1)n >= -25
MCLin4(0,1,1):  -25 y(1,0,1) + u(0,1,1)p - u(0,1,1)n <= 0
MCLin5(0,1,1):  34 y(1,0,1) - v(0,1,1)p + v(0,1,1)n + u(0,1,1)p - u(0,1,1)n <= 34
MCLin6(1,0,1):  u(1,0,1)p - u(1,0,1)n >= 0
MCLin7(1,0,1):  36 y(0,1,1) + u(1,0,1)p - u(1,0,1)n >= 0
MCLin8(1,0,1):  -23 y(0,1,1) - v(1,0,1)p + v(1,0,1)n + u(1,0,1)p - u(1,0,1)n >= -23
MCLin9(1,0,1):  -23 y(0,1,1) + u(1,0,1)p - u(1,0,1)n <= 0
MCLin10(1,0,1):  36 y(0,1,1) - v(1,0,1)p + v(1,0,1)n + u(1,0,1)p - u(1,0,1)n <= 36
MCLinV(0,1,2):  - x(0,2) + v(0,1,2)p - v(0,1,2)n + x(1,2) = -7
MCLinV(1,0,2):  x(0,2) + v(1,0,2)p - v(1,0,2)n - x(1,2) = -7
MCLin1(0,1,2):  u(0,1,2)p - u(0,1,2)n >= 0
MCLin2(0,1,2):  37 y(1,0,2) + u(0,1,2)p - u(0,1,2)n >= 0
MCLin3(0,1,2):  -22 y(1,0,2) - v(0,1,2)p + v(0,1,2)n + u(0,1,2)p - u(0,1,2)n >= -22
MCLin4(0,1,2):  -22 y(1,0,2) + u(0,1,2)p - u(0,1,2)n <= 0
MCLin5(0,1,2):  37 y(1,0,2) - v(0,1,2)p + v(0,1,2)n + u(0,1,2)p - u(0,1,2)n <= 37
MCLin6(1,0,2):  u(1,0,2)p - u(1,0,2)n >= 0
MCLin7(1,0,2):  36 y(0,1,2) + u(1,0,2)p - u(1,0,2)n >= 0
MCLin8(1,0,2):  -23 y(0,1,2) - v(1,0,2)p + v(1,0,2)n + u(1,0,2)p - u(1,0,2)n >= -23
MCLin9(1,0,2):  -23 y(0,1,2) + u(1,0,2)p - u(1,0,2)n <= 0
MCLin10(1,0,2):  36 y(0,1,2) - v(1,0,2)p + v(1,0,2)n + u(1,0,2)p - u(1,0,2)n <= 36
MCLinV(0,2,0):  - x(0,0) + v(0,2,0)p - v(0,2,0)n + x(2,0) = -2
MCLinV(2,0,0):  x(0,0) + v(2,0,0)p - v(2,0,0)n - x(2,0) = -1
MCLin1(0,2,0):  u(0,2,0)p - u(0,2,0)n >= 0
MCLin2(0,2,0):  30 y(2,0,0) + u(0,2,0)p - u(0,2,0)n >= 0
MCLin3(0,2,0):  -28 y(2,0,0) - v(0,2,0)p + v(0,2,0)n + u(0,2,0)p - u(0,2,0)n >= -28
MCLin4(0,2,0):  -28 y(2,0,0) + u(0,2,0)p - u(0,2,0)n <= 0
MCLin5(0,2,0):  30 y(2,0,0) - v(0,2,0)p + v(0,2,0)n + u(0,2,0)p - u(0,2,0)n <= 30
MCLin6(2,0,0):  u(2,0,0)p - u(2,0,0)n >= 0
MCLin7(2,0,0):  31 y(0,2,0) + u(2,0,0)p - u(2,0,0)n >= 0
MCLin8(2,0,0):  -27 y(0,2,0) - v(2,0,0)p + v(2,0,0)n + u(2,0,0)p - u(2,0,0)n >= -27
MCLin9(2,0,0):  -27 y(0,2,0) + u(2,0,0)p - u(2,0,0)n <= 0
MCLin10(2,0,0):  31 y(0,2,0) - v(2,0,0)p + v(2,0,0)n + u(2,0,0)p - u(2,0,0)n <= 31
MCLinV(0,2,1):  - x(0,1) + v(0,2,1)p - v(0,2,1)n + x(2,1) = -7
MCLinV(2,0,1):  x(0,1) + v(2,0,1)p - v(2,0,1)n - x(2,1) = -7
MCLin1(0,2,1):  u(0,2,1)p - u(0,2,1)n >= 0
MCLin2(0,2,1):  36 y(2,0,1) + u(0,2,1)p - u(0,2,1)n >= 0
MCLin3(0,2,1):  -22 y(2,0,1) - v(0,2,1)p + v(0,2,1)n + u(0,2,1)p - u(0,2,1)n >= -22
MCLin4(0,2,1):  -22 y(2,0,1) + u(0,2,1)p - u(0,2,1)n <= 0
MCLin5(0,2,1):  36 y(2,0,1) - v(0,2,1)p + v(0,2,1)n + u(0,2,1)p - u(0,2,1)n <= 36
MCLin6(2,0,1):  u(2,0,1)p - u(2,0,1)n >= 0
MCLin7(2,0,1):  36 y(0,2,1) + u(2,0,1)p - u(2,0,1)n >= 0
MCLin8(2,0,1):  -22 y(0,2,1) - v(2,0,1)p + v(2,0,1)n + u(2,0,1)p - u(2,0,1)n >= -22
MCLin9(2,0,1):  -22 y(0,2,1) + u(2,0,1)p - u(2,0,1)n <= 0
MCLin10(2,0,1):  36 y(0,2,1) - v(2,0,1)p + v(2,0,1)n + u(2,0,1)p - u(2,0,1)n <= 36
MCLinV(0,2,2):  - x(0,2) + v(0,2,2)p - v(0,2,2)n + x(2,2) = -6
MCLinV(2,0,2):  x(0,2) + v(2,0,2)p - v(2,0,2)n - x(2,2) = -7
MCLin1(0,2,2):  u(0,2,2)p - u(0,2,2)n >= 0
MCLin2(0,2,2):  35 y(2,0,2) + u(0,2,2)p - u(0,2,2)n >= 0
MCLin3(0,2,2):  -23 y(2,0,2) - v(0,2,2)p + v(0,2,2)n + u(0,2,2)p - u(0,2,2)n >= -23
MCLin4(0,2,2):  -23 y(2,0,2) + u(0,2,2)p - u(0,2,2)n <= 0
MCLin5(0,2,2):  35 y(2,0,2) - v(0,2,2)p + v(0,2,2)n + u(0,2,2)p - u(0,2,2)n <= 35
MCLin6(2,0,2):  u(2,0,2)p - u(2,0,2)n >= 0
MCLin7(2,0,2):  36 y(0,2,2) + u(2,0,2)p - u(2,0,2)n >= 0
MCLin8(2,0,2):  -22 y(0,2,2) - v(2,0,2)p + v(2,0,2)n + u(2,0,2)p - u(2,0,2)n >= -22
MCLin9(2,0,2):  -22 y(0,2,2) + u(2,0,2)p - u(2,0,2)n <= 0
MCLin10(2,0,2):  36 y(0,2,2) - v(2,0,2)p + v(2,0,2)n + u(2,0,2)p - u(2,0,2)n <= 36
MCLinV(1,2,0):  - x(1,0) + v(1,2,0)p - v(1,2,0)n + x(2,0) = -2
MCLinV(2,1,0):  x(1,0) + v(2,1,0)p - v(2,1,0)n - x(2,0) = -3
MCLin1(1,2,0):  u(1,2,0)p - u(1,2,0)n >= 0
MCLin2(1,2,0):  40 y(2,1,0) + u(1,2,0)p - u(1,2,0)n >= 0
MCLin3(1,2,0):  -19 y(2,1,0) - v(1,2,0)p + v(1,2,0)n + u(1,2,0)p - u(1,2,0)n >= -19
MCLin4(1,2,0):  -19 y(2,1,0) + u(1,2,0)p - u(1,2,0)n <= 0
MCLin5(1,2,0):  40 y(2,1,0) - v(1,2,0)p + v(1,2,0)n + u(1,2,0)p - u(1,2,0)n <= 40
MCLin6(2,1,0):  u(2,1,0)p - u(2,1,0)n >= 0
MCLin7(2,1,0):  24 y(1,2,0) + u(2,1,0)p - u(2,1,0)n >= 0
MCLin8(2,1,0):  -35 y(1,2,0) - v(2,1,0)p + v(2,1,0)n + u(2,1,0)p - u(2,1,0)n >= -35
MCLin9(2,1,0):  -35 y(1,2,0) + u(2,1,0)p - u(2,1,0)n <= 0
MCLin10(2,1,0):  24 y(1,2,0) - v(2,1,0)p + v(2,1,0)n + u(2,1,0)p - u(2,1,0)n <= 24
MCLinV(1,2,1):  - x(1,1) + v(1,2,1)p - v(1,2,1)n + x(2,1) = -7
MCLinV(2,1,1):  x(1,1) + v(2,1,1)p - v(2,1,1)n - x(2,1) = -4
MCLin1(1,2,1):  u(1,2,1)p - u(1,2,1)n >= 0
MCLin2(1,2,1):  36 y(2,1,1) + u(1,2,1)p - u(1,2,1)n >= 0
MCLin3(1,2,1):  -23 y(2,1,1) - v(1,2,1)p + v(1,2,1)n + u(1,2,1)p - u(1,2,1)n >= -23
MCLin4(1,2,1):  -23 y(2,1,1) + u(1,2,1)p - u(1,2,1)n <= 0
MCLin5(1,2,1):  36 y(2,1,1) - v(1,2,1)p + v(1,2,1)n + u(1,2,1)p - u(1,2,1)n <= 36
MCLin6(2,1,1):  u(2,1,1)p - u(2,1,1)n >= 0
MCLin7(2,1,1):  34 y(1,2,1) + u(2,1,1)p - u(2,1,1)n >= 0
MCLin8(2,1,1):  -25 y(1,2,1) - v(2,1,1)p + v(2,1,1)n + u(2,1,1)p - u(2,1,1)n >= -25
MCLin9(2,1,1):  -25 y(1,2,1) + u(2,1,1)p - u(2,1,1)n <= 0
MCLin10(2,1,1):  34 y(1,2,1) - v(2,1,1)p + v(2,1,1)n + u(2,1,1)p - u(2,1,1)n <= 34
MCLinV(1,2,2):  - x(1,2) + v(1,2,2)p - v(1,2,2)n + x(2,2) = -6
MCLinV(2,1,2):  x(1,2) + v(2,1,2)p - v(2,1,2)n - x(2,2) = -7
MCLin1(1,2,2):  u(1,2,2)p - u(1,2,2)n >= 0
MCLin2(1,2,2):  35 y(2,1,2) + u(1,2,2)p - u(1,2,2)n >= 0
MCLin3(1,2,2):  -24 y(2,1,2) - v(1,2,2)p + v(1,2,2)n + u(1,2,2)p - u(1,2,2)n >= -24
MCLin4(1,2,2):  -24 y(2,1,2) + u(1,2,2)p - u(1,2,2)n <= 0
MCLin5(1,2,2):  35 y(2,1,2) - v(1,2,2)p + v(1,2,2)n + u(1,2,2)p - u(1,2,2)n <= 35
MCLin6(2,1,2):  u(2,1,2)p - u(2,1,2)n >= 0
MCLin7(2,1,2):  37 y(1,2,2) + u(2,1,2)p - u(2,1,2)n >= 0
MCLin8(2,1,2):  -22 y(1,2,2) - v(2,1,2)p + v(2,1,2)n + u(2,1,2)p - u(2,1,2)n >= -22
MCLin9(2,1,2):  -22 y(1,2,2) + u(2,1,2)p - u(2,1,2)n <= 0
MCLin10(2,1,2):  37 y(1,2,2) - v(2,1,2)p + v(2,1,2)n + u(2,1,2)p - u(2,1,2)n <= 37
makespan(0):  C - x(0,0) >= 1
makespan(1):  C - x(1,2) >= 7
makespan(2):  C - x(2,0) >= 2
cut_clique_1(0,1):  0.84690 x(0,1) + 0.72595 x(1,1) >= 1
cut_clique_1(1,1):  0.77915 x(0,1) + 0.72595 x(1,1) >= 1
cut_clique_1(2,1):  0.77915 x(0,1) + 0.76225 x(1,1) >= 1
cut_clique_1(3,1):  0.70903 x(0,1) + 0.76225 x(1,1) >= 1
cut_clique_1(4,1):  0.70903 x(0,1) + 0.71652 x(1,1) >= 1
cut_clique_1(5,1):  0.70903 x(0,1) + 0.80966 x(1,1) >= 1
cut_clique_1(6,1):  0.66649 x(0,1) + 0.80966 x(1,1) >= 1
cut_clique_1(7,1):  0.65982 x(0,1) + 0.80966 x(1,1) >= 1
cut_clique_1(8,1):  0.67962 x(0,1) + 0.80966 x(1,1) >= 1
cut_clique_1(9,1):  0.67962 x(0,1) + 0.87444 x(1,1) >= 1
cut_clique_1(10,1):  0.70000 x(0,1) + 0.87444 x(1,1) >= 1
cut_clique_1(11,1):  0.72800 x(0,1) + 0.87444 x(1,1) >= 1
cut_clique_1(12,1):  0.72800 x(0,1) + 0.82197 x(1,1) >= 1
cut_clique_1(13,1):  0.72800 x(0,1) + 0.70689 x(1,1) >= 1
cut_clique_1(14,1):  0.72800 x(0,1) + 0.62207 x(1,1) >= 1
cut_clique_1(15,1):  0.44701 x(0,1) + 0.88315 x(1,1) >= 1
cut_clique_1(16,1):  0.96068 x(0,1) + 0.33214 x(1,1) >= 1
cut_clique_1(17,1):  0.99285 x(0,1) + 0.32316 x(1,1) >= 1
cut_clique_1(18,1):  0.51380 x(0,1) + 0.77948 x(1,1) >= 1
cut_clique_1(19,1):  0.96068 x(0,1) + 0.36102 x(1,1) >= 1
cut_clique_1(20,1):  0.51380 x(0,1) + 0.92942 x(1,1) >= 1
cut_clique_1(21,1):  0.59861 x(0,1) + 0.70294 x(1,1) >= 1
cut_clique_1(22,1):  0.99424 x(0,1) + 0.36432 x(1,1) >= 1
cut_clique_1(23,1):  0.90079 x(0,1) + 0.39612 x(1,1) >= 1
cut_clique_1(24,1):  0.97115 x(0,1) + 0.33060 x(1,1) >= 1
cut_clique_1(25,1):  0.96894 x(0,1) + 0.33143 x(1,1) >= 1
cut_clique_1(26,1):  0.51380 x(0,1) + 0.88315 x(1,1) >= 1
cut_clique_1(27,1):  0.48042 x(0,1) + 0.96257 x(1,1) >= 1
cut_clique_1(28,1):  0.44679 x(0,1) + 0.92205 x(1,1) >= 1
cut_clique_1(29,1):  0.90124 x(0,1) + 0.43011 x(1,1) >= 1
cut_clique_1(30,1):  0.51380 x(0,1) + 0.85507 x(1,1) >= 1
cut_clique_1(31,1):  0.99285 x(0,1) + 0.36194 x(1,1) >= 1
cut_clique_1(32,1):  0.34565 x(0,1) + 0.98183 x(1,1) >= 1
cut_clique_1(33,1):  0.48042 x(0,1) + 0.85183 x(1,1) >= 1
cut_clique_1(34,1):  0.85313 x(0,1) + 0.45599 x(1,1) >= 1
cut_clique_1(35,1):  0.48042 x(0,1) + 0.92205 x(1,1) >= 1
cut_clique_1(36,1):  0.83724 x(0,1) + 0.45387 x(1,1) >= 1
cut_clique_1(37,1):  0.95807 x(0,1) + 0.41721 x(1,1) >= 1
cut_clique_1(38,1):  0.85066 x(0,1) + 0.43166 x(1,1) >= 1
cut_clique_1(39,1):  0.44679 x(0,1) + 0.92942 x(1,1) >= 1
cut_clique_1(40,1):  0.85313 x(0,1) + 0.44687 x(1,1) >= 1
cut_clique_1(41,1):  0.48042 x(0,1) + 0.89519 x(1,1) >= 1
cut_clique_1(42,1):  0.95807 x(0,1) + 0.36714 x(1,1) >= 1
cut_clique_1(43,1):  0.44679 x(0,1) + 0.96815 x(1,1) >= 1
cut_clique_1(44,1):  0.99285 x(0,1) + 0.33094 x(1,1) >= 1
cut_clique_1(45,1):  0.39730 x(0,1) + 0.98183 x(1,1) >= 1
cut_clique_1(46,1):  0.51380 x(0,1) + 0.85743 x(1,1) >= 1
cut_clique_1(47,1):  0.99285 x(0,1) + 0.34748 x(1,1) >= 1
cut_clique_1(48,1):  0.92919 x(0,1) + 0.36432 x(1,1) >= 1
cut_clique_1(49,1):  0.85772 x(0,1) + 0.46749 x(1,1) >= 1
cut_clique_1(0,2):  0.00311 x(0,2) + 0.13957 x(2,2) >= 1
cut_clique_1(1,2):  0.00302 x(0,2) + 0.13957 x(2,2) >= 1
cut_clique_1(2,2):  0.00296 x(0,2) + 0.13957 x(2,2) >= 1
cut_clique_1(3,2):  0.00254 x(0,2) + 0.13957 x(2,2) >= 1
cut_clique_1(4,2):  0.00244 x(0,2) + 0.13957 x(2,2) >= 1
cut_clique_1(5,2):  0.00239 x(0,2) + 0.13957 x(2,2) >= 1
cut_clique_1(6,2):  0.00203 x(0,2) + 0.13957 x(2,2) >= 1
cut_clique_1(7,2):  0.00185 x(0,2) + 0.13957 x(2,2) >= 1
cut_clique_1(8,2):  0.00183 x(0,2) + 0.13957 x(2,2) >= 1
cut_clique_1(9,2):  0.00181 x(0,2) + 0.13957 x(2,2) >= 1
cut_clique_1(10,2):  0.00178 x(0,2) + 0.13957 x(2,2) >= 1
cut_clique_1(11,2):  0.00178 x(0,2) + 0.13957 x(2,2) >= 1
cut_clique_1(12,2):  0.00194 x(0,2) + 0.13957 x(2,2) >= 1
cut_clique_1(13,2):  0.00184 x(0,2) + 0.14060 x(2,2) >= 1
cut_clique_1(14,2):  0.00164 x(0,2) + 0.14060 x(2,2) >= 1
cut_clique_1(15,2):  0.00159 x(0,2) + 0.14060 x(2,2) >= 1
cut_clique_1(16,2):  0.00150 x(0,2) + 0.14060 x(2,2) >= 1
cut_clique_1(17,2):  0.00142 x(0,2) + 0.14060 x(2,2) >= 1
cut_clique_1(18,2):  0.00124 x(0,2) + 0.14060 x(2,2) >= 1
cut_clique_1(19,2):  0.00122 x(0,2) + 0.14060 x(2,2) >= 1
cut_clique_1(20,2):  0.00136 x(0,2) + 0.14060 x(2,2) >= 1
cut_clique_1(21,2):  0.00140 x(0,2) + 0.14060 x(2,2) >= 1
cut_clique_1(22,2):  0.00133 x(0,2) + 0.14060 x(2,2) >= 1
cut_clique_1(23,2):  0.00146 x(0,2) + 0.14060 x(2,2) >= 1
cut_clique_1(24,2):  0.00148 x(0,2) + 0.14060 x(2,2) >= 1
cut_clique_1(25,2):  0.00137 x(0,2) + 0.14060 x(2,2) >= 1
cut_clique_1(26,2):  0.00122 x(0,2) + 0.14060 x(2,2) >= 1
cut_clique_1(27,2):  0.00123 x(0,2) + 0.14060 x(2,2) >= 1
cut_clique_1(28,2):  0.00133 x(0,2) + 0.14060 x(2,2) >= 1
cut_clique_1(29,2):  0.00140 x(0,2) + 0.14060 x(2,2) >= 1
cut_clique_1(30,2):  0.00122 x(0,2) + 0.14060 x(2,2) >= 1
cut_clique_2(0,1):  0.12522 x(0,1) + 0.00904 x(1,1) + 0.15427 x(2,1) >= 1
cut_clique_2(1,1):  0.12522 x(0,1) + 0.00904 x(1,1) + 0.13885 x(2,1) >= 1
cut_clique_2(2,1):  0.12522 x(0,1) + 0.00904 x(1,1) + 0.16182 x(2,1) >= 1
cut_clique_2(3,1):  0.12522 x(0,1) + 0.00904 x(1,1) + 0.17302 x(2,1) >= 1
cut_clique_2(4,1):  0.12397 x(0,1) + 0.00947 x(1,1) + 0.35056 x(2,1) >= 1
cut_clique_2(5,1):  0.13854 x(0,1) + 0.00321 x(1,1) + 0.31680 x(2,1) >= 1
cut_clique_2(6,1):  0.13895 x(0,1) + 0.00362 x(1,1) + 0.25404 x(2,1) >= 1
cut_clique_2(7,1):  0.13895 x(0,1) + 0.00362 x(1,1) + 0.24858 x(2,1) >= 1
cut_clique_2(8,1):  0.13895 x(0,1) + 0.00309 x(1,1) + 0.24773 x(2,1) >= 1
cut_clique_2(9,1):  0.12397 x(0,1) + 0.00947 x(1,1) + 0.32763 x(2,1) >= 1
cut_clique_2(10,1):  0.13895 x(0,1) + 0.00330 x(1,1) + 0.24773 x(2,1) >= 1
cut_clique_2(11,1):  0.13895 x(0,1) + 0.00309 x(1,1) + 0.26354 x(2,1) >= 1
cut_clique_2(12,1):  0.13895 x(0,1) + 0.00312 x(1,1) + 0.23118 x(2,1) >= 1
cut_clique_2(13,1):  0.14246 x(0,1) + 0.00311 x(1,1) + 0.22802 x(2,1) >= 1
cut_clique_2(14,1):  0.14041 x(0,1) + 0.00179 x(1,1) + 0.32460 x(2,1) >= 1
cut_clique_2(15,1):  0.13895 x(0,1) + 0.00309 x(1,1) + 0.23118 x(2,1) >= 1
cut_clique_2(16,1):  0.13895 x(0,1) + 0.00358 x(1,1) + 0.23118 x(2,1) >= 1
cut_clique_2(17,1):  0.14246 x(0,1) + 0.00366 x(1,1) + 0.22355 x(2,1) >= 1
cut_clique_2(18,1):  0.14463 x(0,1) + 0.00208 x(1,1) + 0.26681 x(2,1) >= 1
cut_clique_2(19,1):  0.13854 x(0,1) + 0.00321 x(1,1) + 0.33581 x(2,1) >= 1
cut_clique_2(20,1):  0.14246 x(0,1) + 0.00354 x(1,1) + 0.22802 x(2,1) >= 1
cut_clique_2(21,1):  0.14041 x(0,1) + 0.00190 x(1,1) + 0.36067 x(2,1) >= 1
cut_clique_2(22,1):  0.12522 x(0,1) + 0.00886 x(1,1) + 0.12572 x(2,1) >= 1
cut_clique_2(23,1):  0.13306 x(0,1) + 0.00665 x(1,1) + 0.48716 x(2,1) >= 1
cut_clique_2(24,1):  0.14246 x(0,1) + 0.00366 x(1,1) + 0.22802 x(2,1) >= 1
cut_clique_2(25,1):  0.12522 x(0,1) + 0.00904 x(1,1) + 0.17477 x(2,1) >= 1
cut_clique_2(26,1):  0.14431 x(0,1) + 0.00279 x(1,1) + 0.32327 x(2,1) >= 1
cut_clique_2(27,1):  0.13306 x(0,1) + 0.00665 x(1,1) + 0.45107 x(2,1) >= 1
cut_clique_2(28,1):  0.14463 x(0,1) + 0.00198 x(1,1) + 0.26681 x(2,1) >= 1
cut_clique_2(29,1):  0.12522 x(0,1) + 0.00904 x(1,1) + 0.12774 x(2,1) >= 1
cut_clique_2(30,1):  0.13698 x(0,1) + 0.00373 x(1,1) + 0.22355 x(2,1) >= 1
cut_clique_2(31,1):  0.12397 x(0,1) + 0.00947 x(1,1) + 0.38085 x(2,1) >= 1
cut_clique_2(32,1):  0.14847 x(0,1) + 0.00149 x(1,1) + 0.23588 x(2,1) >= 1
cut_clique_2(33,1):  0.12522 x(0,1) + 0.00904 x(1,1) + 0.17939 x(2,1) >= 1
cut_clique_2(34,1):  0.12522 x(0,1) + 0.00886 x(1,1) + 0.13157 x(2,1) >= 1
cut_clique_2(35,1):  0.12522 x(0,1) + 0.00886 x(1,1) + 0.12774 x(2,1) >= 1
cut_clique_2(36,1):  0.12397 x(0,1) + 0.00947 x(1,1) + 0.39263 x(2,1) >= 1
cut_clique_2(37,1):  0.13895 x(0,1) + 0.00362 x(1,1) + 0.23118 x(2,1) >= 1
cut_clique_2(38,1):  0.13404 x(0,1) + 0.00626 x(1,1) + 0.59879 x(2,1) >= 1
cut_clique_2(39,1):  0.14012 x(0,1) + 0.00193 x(1,1) + 0.26681 x(2,1) >= 1
cut_clique_2(40,1):  0.13895 x(0,1) + 0.00362 x(1,1) + 0.25404 x(2,1) >= 1
cut_clique_2(41,1):  0.12522 x(0,1) + 0.00904 x(1,1) + 0.18686 x(2,1) >= 1
cut_clique_2(42,1):  0.12522 x(0,1) + 0.00886 x(1,1) + 0.13815 x(2,1) >= 1
cut_clique_2(43,1):  0.13895 x(0,1) + 0.00377 x(1,1) + 0.25404 x(2,1) >= 1
cut_clique_2(44,1):  0.13895 x(0,1) + 0.00362 x(1,1) + 0.26166 x(2,1) >= 1
cut_clique_2(45,1):  0.14041 x(0,1) + 0.00161 x(1,1) + 0.33109 x(2,1) >= 1
cut_clique_2(46,1):  0.14041 x(0,1) + 0.00190 x(1,1) + 0.32460 x(2,1) >= 1
cut_clique_2(47,1):  0.14041 x(0,1) + 0.00161 x(1,1) + 0.32460 x(2,1) >= 1
cut_clique_2(48,1):  0.13854 x(0,1) + 0.00362 x(1,1) + 0.33581 x(2,1) >= 1
cut_clique_2(49,1):  0.14246 x(0,1) + 0.00354 x(1,1) + 0.25767 x(2,1) >= 1
cut_clique_2(0,2):  0.03310 x(0,2) + 0.01704 x(1,2) + 0.03518 x(2,2) >= 1
cut_clique_2(1,2):  0.02797 x(0,2) + 0.01436 x(1,2) + 0.05028 x(2,2) >= 1
cut_clique_2(2,2):  0.02855 x(0,2) + 0.01480 x(1,2) + 0.05237 x(2,2) >= 1
cut_clique_2(3,2):  0.03736 x(0,2) + 0.02030 x(1,2) + 0.03883 x(2,2) >= 1
cut_clique_2(4,2):  0.03736 x(0,2) + 0.01660 x(1,2) + 0.03689 x(2,2) >= 1
cut_clique_2(5,2):  0.03213 x(0,2) + 0.01627 x(1,2) + 0.03689 x(2,2) >= 1
cut_clique_2(6,2):  0.03217 x(0,2) + 0.01436 x(1,2) + 0.04977 x(2,2) >= 1
cut_clique_2(7,2):  0.03300 x(0,2) + 0.01161 x(1,2) + 0.04881 x(2,2) >= 1
cut_clique_2(8,2):  0.03300 x(0,2) + 0.01150 x(1,2) + 0.04881 x(2,2) >= 1
cut_clique_2(9,2):  0.02293 x(0,2) + 0.01917 x(1,2) + 0.05214 x(2,2) >= 1
cut_clique_2(10,2):  0.03736 x(0,2) + 0.01711 x(1,2) + 0.03689 x(2,2) >= 1
cut_clique_2(11,2):  0.02855 x(0,2) + 0.01450 x(1,2) + 0.05028 x(2,2) >= 1
cut_clique_2(12,2):  0.02293 x(0,2) + 0.01655 x(1,2) + 0.05910 x(2,2) >= 1
cut_clique_2(13,2):  0.03448 x(0,2) + 0.01794 x(1,2) + 0.03141 x(2,2) >= 1
cut_clique_2(14,2):  0.03310 x(0,2) + 0.01896 x(1,2) + 0.03342 x(2,2) >= 1
cut_clique_2(15,2):  0.02293 x(0,2) + 0.01902 x(1,2) + 0.05277 x(2,2) >= 1
cut_clique_2(16,2):  0.03203 x(0,2) + 0.00784 x(1,2) + 0.06103 x(2,2) >= 1
cut_clique_2(17,2):  0.03310 x(0,2) + 0.01794 x(1,2) + 0.03518 x(2,2) >= 1
cut_clique_2(18,2):  0.03310 x(0,2) + 0.01896 x(1,2) + 0.03776 x(2,2) >= 1
cut_clique_2(19,2):  0.03310 x(0,2) + 0.01789 x(1,2) + 0.03342 x(2,2) >= 1
cut_clique_2(20,2):  0.03310 x(0,2) + 0.01896 x(1,2) + 0.04229 x(2,2) >= 1
cut_clique_2(21,2):  0.02430 x(0,2) + 0.02136 x(1,2) + 0.05260 x(2,2) >= 1
cut_clique_2(22,2):  0.03203 x(0,2) + 0.00825 x(1,2) + 0.06103 x(2,2) >= 1
cut_clique_2(23,2):  0.02526 x(0,2) + 0.01697 x(1,2) + 0.05454 x(2,2) >= 1
cut_clique_2(24,2):  0.02631 x(0,2) + 0.01697 x(1,2) + 0.05454 x(2,2) >= 1
cut_clique_2(25,2):  0.03700 x(0,2) + 0.01173 x(1,2) + 0.04981 x(2,2) >= 1
cut_clique_2(26,2):  0.03736 x(0,2) + 0.01711 x(1,2) + 0.03883 x(2,2) >= 1
cut_clique_2(27,2):  0.03300 x(0,2) + 0.01173 x(1,2) + 0.04981 x(2,2) >= 1
cut_clique_2(28,2):  0.02430 x(0,2) + 0.02136 x(1,2) + 0.05050 x(2,2) >= 1
cut_clique_2(29,2):  0.03626 x(0,2) + 0.01173 x(1,2) + 0.04981 x(2,2) >= 1
cut_clique_2(30,2):  0.02293 x(0,2) + 0.01902 x(1,2) + 0.04797 x(2,2) >= 1
cut_clique_2(31,2):  0.02293 x(0,2) + 0.01745 x(1,2) + 0.05214 x(2,2) >= 1
cut_clique_2(32,2):  0.02363 x(0,2) + 0.01917 x(1,2) + 0.04574 x(2,2) >= 1
cut_clique_2(33,2):  0.03310 x(0,2) + 0.01896 x(1,2) + 0.04610 x(2,2) >= 1
cut_clique_2(34,2):  0.02293 x(0,2) + 0.01917 x(1,2) + 0.04574 x(2,2) >= 1
cut_clique_2(35,2):  0.02526 x(0,2) + 0.01918 x(1,2) + 0.05454 x(2,2) >= 1
cut_clique_2(36,2):  0.03736 x(0,2) + 0.01990 x(1,2) + 0.03883 x(2,2) >= 1
cut_clique_2(37,2):  0.02855 x(0,2) + 0.01721 x(1,2) + 0.05237 x(2,2) >= 1
cut_clique_2(38,2):  0.02797 x(0,2) + 0.01450 x(1,2) + 0.05028 x(2,2) >= 1
cut_clique_2(39,2):  0.03310 x(0,2) + 0.01794 x(1,2) + 0.03141 x(2,2) >= 1
cut_clique_2(40,2):  0.03310 x(0,2) + 0.01704 x(1,2) + 0.03342 x(2,2) >= 1
cut_clique_2(41,2):  0.03213 x(0,2) + 0.01660 x(1,2) + 0.03689 x(2,2) >= 1
cut_clique_2(42,2):  0.02526 x(0,2) + 0.01918 x(1,2) + 0.05290 x(2,2) >= 1
cut_clique_2(43,2):  0.02855 x(0,2) + 0.01480 x(1,2) + 0.05028 x(2,2) >= 1
cut_clique_2(44,2):  0.03217 x(0,2) + 0.01436 x(1,2) + 0.05028 x(2,2) >= 1
cut_clique_2(45,2):  0.03300 x(0,2) + 0.01161 x(1,2) + 0.04981 x(2,2) >= 1
cut_clique_2(46,2):  0.03743 x(0,2) + 0.02345 x(1,2) + 0.03141 x(2,2) >= 1
cut_clique_2(47,2):  0.03668 x(0,2) + 0.02345 x(1,2) + 0.03141 x(2,2) >= 1
cut_clique_2(48,2):  0.03448 x(0,2) + 0.02345 x(1,2) + 0.03141 x(2,2) >= 1
cut_clique_2(49,2):  0.03448 x(0,2) + 0.02110 x(1,2) + 0.03141 x(2,2) >= 1
Bounds
 0 <= C <= 44
 14 <= x(0,0) <= 43
 0 <= y(0,1,0) <= 1
 0 <= y(1,0,0) <= 1
 0 <= v(0,1,0)p <= 36
 0 <= v(0,1,0)n <= 23
 0 <= v(1,0,0)p <= 19
 0 <= v(1,0,0)n <= 40
 0 <= u(0,1,0)p <= 440
 0 <= u(0,1,0)n <= 440
 0 <= u(1,0,0)p <= 440
 0 <= u(1,0,0)n <= 440
 0 <= y(0,2,0) <= 1
 0 <= y(2,0,0) <= 1
 0 <= v(0,2,0)p <= 28
 0 <= v(0,2,0)n <= 30
 0 <= v(2,0,0)p <= 27
 0 <= v(2,0,0)n <= 31
 0 <= u(0,2,0)p <= 440
 0 <= u(0,2,0)n <= 440
 0 <= u(2,0,0)p <= 440
 0 <= u(2,0,0)n <= 440
 4 <= x(1,0) <= 34
 0 <= y(1,2,0) <= 1
 0 <= y(2,1,0) <= 1
 0 <= v(1,2,0)p <= 19
 0 <= v(1,2,0)n <= 40
 0 <= v(2,1,0)p <= 35
 0 <= v(2,1,0)n <= 24
 0 <= u(1,2,0)p <= 440
 0 <= u(1,2,0)n <= 440
 0 <= u(2,1,0)p <= 440
 0 <= u(2,1,0)n <= 440
 13 <= x(2,0) <= 42
 0 <= x(0,1) <= 29
 0 <= y(0,1,1) <= 1
 0 <= y(1,0,1) <= 1
 0 <= v(0,1,1)p <= 25
 0 <= v(0,1,1)n <= 34
 0 <= v(1,0,1)p <= 23
 0 <= v(1,0,1)n <= 36
 0 <= u(0,1,1)p <= 440
 0 <= u(0,1,1)n <= 440
 0 <= u(1,0,1)p <= 440
 0 <= u(1,0,1)n <= 440
 0 <= y(0,2,1) <= 1
 0 <= y(2,0,1) <= 1
 0 <= v(0,2,1)p <= 22
 0 <= v(0,2,1)n <= 36
 0 <= v(2,0,1)p <= 22
 0 <= v(2,0,1)n <= 36
 0 <= u(0,2,1)p <= 440
 0 <= u(0,2,1)n <= 440
 0 <= u(2,0,1)p <= 440
 0 <= u(2,0,1)n <= 440
 0 <= x(1,1) <= 30
 0 <= y(1,2,1) <= 1
 0 <= y(2,1,1) <= 1
 0 <= v(1,2,1)p <= 23
 0 <= v(1,2,1)n <= 36
 0 <= v(2,1,1)p <= 25
 0 <= v(2,1,1)n <= 34
 0 <= u(1,2,1)p <= 440
 0 <= u(1,2,1)n <= 440
 0 <= u(2,1,1)p <= 440
 0 <= u(2,1,1)n <= 440
 0 <= x(2,1) <= 29
 7 <= x(0,2) <= 36
 0 <= y(0,1,2) <= 1
 0 <= y(1,0,2) <= 1
 0 <= v(0,1,2)p <= 22
 0 <= v(0,1,2)n <= 37
 0 <= v(1,0,2)p <= 23
 0 <= v(1,0,2)n <= 36
 0 <= u(0,1,2)p <= 440
 0 <= u(0,1,2)n <= 440
 0 <= u(1,0,2)p <= 440
 0 <= u(1,0,2)n <= 440
 0 <= y(0,2,2) <= 1
 0 <= y(2,0,2) <= 1
 0 <= v(0,2,2)p <= 23
 0 <= v(0,2,2)n <= 35
 0 <= v(2,0,2)p <= 22
 0 <= v(2,0,2)n <= 36
 0 <= u(0,2,2)p <= 440
 0 <= u(0,2,2)n <= 440
 0 <= u(2,0,2)p <= 440
 0 <= u(2,0,2)n <= 440
 7 <= x(1,2) <= 37
 0 <= y(1,2,2) <= 1
 0 <= y(2,1,2) <= 1
 0 <= v(1,2,2)p <= 24
 0 <= v(1,2,2)n <= 35
 0 <= v(2,1,2)p <= 22
 0 <= v(2,1,2)n <= 37
 0 <= u(1,2,2)p <= 440
 0 <= u(1,2,2)n <= 440
 0 <= u(2,1,2)p <= 440
 0 <= u(2,1,2)n <= 440
 7 <= x(2,2) <= 36
End
